
Log started (V11.0.0) Wed Apr 16 10:16:38 2008

Tried aggregator 1 time.
Reduced MIP has 140 rows, 4001 columns, and 8040 nonzeros.
Presolve time =    0.03 sec.
Clique table members: 100.
MIP emphasis: balance optimality and feasibility.
MIP search method: dynamic search.
Parallel mode: none, using 1 thread.
Root relaxation solution time =    0.09 sec.

        Nodes                                         Cuts/
   Node  Left     Objective  IInf  Best Integer     Best Node    ItCnt     Gap

*     0+    0                         5114.0000       30.0345      636   99.41%
*     0+    0                           43.0000       30.0345      636   30.15%
      0     0       31.0000    63       43.0000      Fract: 6      645   27.91%
*     0+    0                           42.0000       31.0000      645   26.19%
*     0+    0                           41.0000       31.0000      645   24.39%
*     0+    0                           40.0000       31.0000      645   22.50%
*     0+    0                           37.0000       31.0000      645   16.22%

Repeating presolve.
Tried aggregator 1 time.
MIP Presolve eliminated 0 rows and 2767 columns.
MIP Presolve modified 234 coefficients.
Reduced MIP has 140 rows, 1234 columns, and 2506 nonzeros.
Tried aggregator 1 time.
Represolve time =    0.05 sec.
Clique table members: 321.
MIP emphasis: balance optimality and feasibility.
MIP search method: dynamic search.
Parallel mode: none, using 1 thread.
Root relaxation solution time =    0.02 sec.

        Nodes                                         Cuts/
   Node  Left     Objective  IInf  Best Integer     Best Node    ItCnt     Gap

      0     0       31.0000    76       37.0000       31.0000      433   16.22%
      0     2       31.0000    76       37.0000       31.0000      433   16.22%
    100    98       32.0015    71       37.0000       31.0000     1889   16.22%
    200   178       36.0000    50       37.0000       31.0000     3470   16.22%
*   300+  240                           36.0000       31.0000     5696   13.89%
    300   242       34.0000    48       36.0000       31.0000     5696   13.89%
    400   325       32.0000    81       36.0000       31.0000     8204   13.89%
    500   416       32.0000    76       36.0000       31.0000    10126   13.89%
*   514+  285                           35.0000       34.0000    12969    2.86%
    600   276       34.0000    47       35.0000       34.0000    20699    2.86%
    700   265       34.0000     2       35.0000       34.0000    28382    2.86%
*   702     0      integral     0       34.0000       34.0000    28470    0.00%

Clique cuts applied:  1
Cover cuts applied:  64
Flow cuts applied:  4
Mixed integer rounding cuts applied:  14
Zero-half cuts applied:  4
Gomory fractional cuts applied:  19

Solution pool: 9 solutions saved.

MIP - Integer optimal solution:  Objective = 3.4000000000e+001
Solution time =    7.36 sec.  Iterations = 28470  Nodes = 703


Incumbent solution
Variable Name           Solution Value
Cmax                         34.000000
X_1_26                        1.000000
X_2_24                        1.000000
X_3_2                         1.000000
X_4_14                        1.000000
X_5_7                         1.000000
X_6_23                        1.000000
X_7_6                         1.000000
X_8_33                        1.000000
X_9_40                        1.000000
X_10_20                       1.000000
X_11_19                       1.000000
X_12_14                       1.000000
X_13_27                       1.000000
X_14_5                        1.000000
X_15_5                        1.000000
X_16_6                        1.000000
X_17_8                        1.000000
X_18_35                       1.000000
X_19_23                       1.000000
X_20_38                       1.000000
X_21_15                       1.000000
X_22_19                       1.000000
X_23_21                       1.000000
X_24_1                        1.000000
X_25_24                       1.000000
X_26_32                       1.000000
X_27_40                       1.000000
X_28_35                       1.000000
X_29_29                       1.000000
X_30_18                       1.000000
X_31_23                       1.000000
X_32_17                       1.000000
X_33_37                       1.000000
X_34_3                        1.000000
X_35_39                       1.000000
X_36_9                        1.000000
X_37_34                       1.000000
X_38_36                       1.000000
X_39_31                       1.000000
X_40_2                        1.000000
X_41_11                       1.000000
X_42_29                       1.000000
X_43_30                       1.000000
X_44_13                       1.000000
X_45_9                        1.000000
X_46_15                       1.000000
X_47_40                       1.000000
X_48_12                       1.000000
X_49_22                       1.000000
X_50_27                       1.000000
X_51_33                       1.000000
X_52_32                       1.000000
X_53_31                       1.000000
X_54_17                       1.000000
X_55_10                       1.000000
X_56_21                       1.000000
X_57_1                        1.000000
X_58_19                       1.000000
X_59_13                       1.000000
X_60_30                       1.000000
X_61_32                       1.000000
X_62_13                       1.000000
X_63_3                        1.000000
X_64_20                       1.000000
X_65_4                        1.000000
X_66_12                       1.000000
X_67_2                        1.000000
X_68_25                       1.000000
X_69_6                        1.000000
X_70_27                       1.000000
X_71_26                       1.000000
X_72_22                       1.000000
X_73_16                       1.000000
X_74_20                       1.000000
X_75_16                       1.000000
X_76_14                       1.000000
X_77_28                       1.000000
X_78_25                       1.000000
X_79_9                        1.000000
X_80_28                       1.000000
X_81_34                       1.000000
X_82_4                        1.000000
X_83_24                       1.000000
X_84_29                       1.000000
X_85_36                       1.000000
X_86_8                        1.000000
X_87_10                       1.000000
X_88_7                        1.000000
X_89_17                       1.000000
X_90_35                       1.000000
X_91_34                       1.000000
X_92_18                       1.000000
X_93_39                       1.000000
X_94_12                       1.000000
X_95_15                       1.000000
X_96_28                       1.000000
X_97_38                       1.000000
X_98_11                       1.000000
X_99_37                       1.000000
X_100_31                      1.000000
All other variables in the range 1-4001 are 0.
